c generated by sgen
p cnf 105 220
-2 -3 -4 0
-1 -3 -4 0
-1 -2 -4 0
-1 -2 -3 0
-6 -7 -8 0
-5 -7 -8 0
-5 -6 -8 0
-5 -6 -7 0
-10 -11 -12 0
-9 -11 -12 0
-9 -10 -12 0
-9 -10 -11 0
-14 -15 -16 0
-13 -15 -16 0
-13 -14 -16 0
-13 -14 -15 0
-18 -19 -20 0
-17 -19 -20 0
-17 -18 -20 0
-17 -18 -19 0
-22 -23 -24 0
-21 -23 -24 0
-21 -22 -24 0
-21 -22 -23 0
-26 -27 -28 0
-25 -27 -28 0
-25 -26 -28 0
-25 -26 -27 0
-30 -31 -32 0
-29 -31 -32 0
-29 -30 -32 0
-29 -30 -31 0
-34 -35 -36 0
-33 -35 -36 0
-33 -34 -36 0
-33 -34 -35 0
-38 -39 -40 0
-37 -39 -40 0
-37 -38 -40 0
-37 -38 -39 0
-42 -43 -44 0
-41 -43 -44 0
-41 -42 -44 0
-41 -42 -43 0
-46 -47 -48 0
-45 -47 -48 0
-45 -46 -48 0
-45 -46 -47 0
-50 -51 -52 0
-49 -51 -52 0
-49 -50 -52 0
-49 -50 -51 0
-54 -55 -56 0
-53 -55 -56 0
-53 -54 -56 0
-53 -54 -55 0
-58 -59 -60 0
-57 -59 -60 0
-57 -58 -60 0
-57 -58 -59 0
-62 -63 -64 0
-61 -63 -64 0
-61 -62 -64 0
-61 -62 -63 0
-66 -67 -68 0
-65 -67 -68 0
-65 -66 -68 0
-65 -66 -67 0
-70 -71 -72 0
-69 -71 -72 0
-69 -70 -72 0
-69 -70 -71 0
-74 -75 -76 0
-73 -75 -76 0
-73 -74 -76 0
-73 -74 -75 0
-78 -79 -80 0
-77 -79 -80 0
-77 -78 -80 0
-77 -78 -79 0
-82 -83 -84 0
-81 -83 -84 0
-81 -82 -84 0
-81 -82 -83 0
-86 -87 -88 0
-85 -87 -88 0
-85 -86 -88 0
-85 -86 -87 0
-90 -91 -92 0
-89 -91 -92 0
-89 -90 -92 0
-89 -90 -91 0
-94 -95 -96 0
-93 -95 -96 0
-93 -94 -96 0
-93 -94 -95 0
-98 -99 -100 0
-97 -99 -100 0
-97 -98 -100 0
-97 -98 -99 0
-101 -102 -103 0
-101 -102 -104 0
-101 -102 -105 0
-101 -103 -104 0
-101 -103 -105 0
-101 -104 -105 0
-102 -103 -104 0
-102 -103 -105 0
-102 -104 -105 0
-103 -104 -105 0
28 54 45 0
16 54 45 0
16 28 45 0
16 28 54 0
63 23 101 0
30 23 101 0
30 63 101 0
30 63 23 0
56 64 97 0
10 64 97 0
10 56 97 0
10 56 64 0
37 48 74 0
70 48 74 0
70 37 74 0
70 37 48 0
79 35 71 0
89 35 71 0
89 79 71 0
89 79 35 0
32 73 50 0
96 73 50 0
96 32 50 0
96 32 73 0
20 3 26 0
103 3 26 0
103 20 26 0
103 20 3 0
11 43 67 0
25 43 67 0
25 11 67 0
25 11 43 0
72 24 83 0
14 24 83 0
14 72 83 0
14 72 24 0
33 88 62 0
5 88 62 0
5 33 62 0
5 33 88 0
98 95 105 0
81 95 105 0
81 98 105 0
81 98 95 0
59 47 18 0
12 47 18 0
12 59 18 0
12 59 47 0
13 66 7 0
102 66 7 0
102 13 7 0
102 13 66 0
75 92 61 0
82 92 61 0
82 75 61 0
82 75 92 0
77 9 8 0
1 9 8 0
1 77 8 0
1 77 9 0
87 91 27 0
99 91 27 0
99 87 27 0
99 87 91 0
29 39 6 0
15 39 6 0
15 29 6 0
15 29 39 0
104 49 40 0
90 49 40 0
90 104 40 0
90 104 49 0
2 69 100 0
57 69 100 0
57 2 100 0
57 2 69 0
51 46 42 0
34 46 42 0
34 51 42 0
34 51 46 0
31 80 41 0
84 80 41 0
84 31 41 0
84 31 80 0
38 19 94 0
36 19 94 0
36 38 94 0
36 38 19 0
22 58 76 0
86 58 76 0
86 22 76 0
86 22 58 0
53 44 17 0
85 44 17 0
85 53 17 0
85 53 44 0
21 65 93 0
4 65 93 0
4 21 93 0
4 21 65 0
68 78 52 0
68 78 60 0
68 78 55 0
68 52 60 0
68 52 55 0
68 60 55 0
78 52 60 0
78 52 55 0
78 60 55 0
52 60 55 0
